60
884
30
0 1
0 2
0 3
0 4
0 7
0 8
0 10
0 13
0 14
0 16
0 18
0 20
0 21
0 23
0 24
0 25
0 26
0 31
0 36
0 37
0 39
0 41
0 42
0 43
0 45
0 46
0 47
0 50
0 52
0 53
0 56
0 57
0 58
0 59
1 2
1 8
1 10
1 11
1 13
1 15
1 17
1 19
1 20
1 21
1 25
1 26
1 27
1 28
1 29
1 30
1 32
1 34
1 40
1 41
1 42
1 45
1 48
1 49
1 51
1 52
1 54
1 55
1 56
1 57
1 58
1 59
2 3
2 4
2 5
2 6
2 7
2 10
2 11
2 12
2 15
2 18
2 20
2 23
2 26
2 28
2 33
2 35
2 40
2 41
2 42
2 45
2 50
2 54
2 59
3 4
3 12
3 13
3 17
3 19
3 20
3 22
3 23
3 24
3 29
3 31
3 34
3 35
3 36
3 37
3 39
3 41
3 44
3 46
3 48
3 52
3 55
3 58
4 6
4 13
4 14
4 17
4 18
4 23
4 25
4 27
4 28
4 29
4 30
4 32
4 34
4 35
4 37
4 41
4 42
4 44
4 45
4 49
4 51
4 52
4 55
4 56
4 58
4 59
5 6
5 7
5 9
5 10
5 12
5 17
5 18
5 20
5 21
5 23
5 28
5 30
5 31
5 34
5 35
5 38
5 40
5 41
5 43
5 47
5 52
5 54
5 55
5 56
5 57
5 58
5 59
6 8
6 9
6 10
6 11
6 13
6 15
6 16
6 18
6 19
6 21
6 23
6 24
6 25
6 27
6 28
6 29
6 31
6 33
6 38
6 39
6 41
6 42
6 44
6 47
6 50
6 56
6 57
6 58
6 59
7 8
7 9
7 10
7 12
7 13
7 14
7 15
7 16
7 18
7 19
7 20
7 21
7 23
7 24
7 26
7 29
7 30
7 31
7 32
7 33
7 35
7 36
7 37
7 38
7 39
7 40
7 44
7 46
7 49
7 50
7 51
7 53
7 54
7 55
7 56
7 57
7 58
8 9
8 10
8 11
8 12
8 13
8 15
8 16
8 20
8 22
8 23
8 27
8 30
8 33
8 34
8 35
8 36
8 37
8 38
8 40
8 41
8 44
8 46
8 49
8 51
8 54
8 55
8 57
8 58
9 11
9 13
9 15
9 16
9 17
9 19
9 20
9 21
9 22
9 25
9 26
9 27
9 28
9 32
9 34
9 37
9 38
9 47
9 50
9 53
9 54
9 55
9 56
9 57
9 58
9 59
10 11
10 12
10 16
10 17
10 18
10 25
10 27
10 28
10 33
10 35
10 36
10 38
10 39
10 41
10 43
10 46
10 47
10 48
10 52
10 54
10 57
11 14
11 20
11 26
11 29
11 30
11 31
11 33
11 37
11 38
11 39
11 41
11 43
11 47
11 48
11 49
11 51
11 52
11 53
11 54
11 55
11 58
11 59
12 13
12 16
12 17
12 19
12 22
12 23
12 24
12 25
12 27
12 29
12 30
12 31
12 33
12 35
12 36
12 38
12 42
12 44
12 50
12 55
13 14
13 16
13 17
13 19
13 20
13 21
13 22
13 26
13 30
13 31
13 33
13 35
13 36
13 37
13 39
13 40
13 42
13 44
13 45
13 46
13 47
13 49
13 52
13 53
13 54
13 56
13 58
13 59
14 16
14 23
14 29
14 35
14 36
14 37
14 39
14 40
14 43
14 45
14 47
14 48
14 52
14 57
14 58
14 59
15 16
15 19
15 20
15 30
15 32
15 34
15 35
15 36
15 38
15 39
15 40
15 41
15 44
15 45
15 46
15 47
15 48
15 50
15 52
15 55
15 58
15 59
16 17
16 19
16 20
16 21
16 22
16 23
16 24
16 27
16 31
16 33
16 34
16 35
16 38
16 40
16 41
16 45
16 46
16 47
16 48
16 49
16 50
16 51
16 55
16 56
16 58
16 59
17 18
17 19
17 21
17 23
17 24
17 26
17 27
17 28
17 30
17 31
17 32
17 34
17 37
17 38
17 39
17 40
17 41
17 42
17 43
17 45
17 46
17 47
17 52
17 53
17 55
17 57
18 22
18 25
18 26
18 27
18 29
18 30
18 31
18 34
18 35
18 36
18 38
18 39
18 41
18 42
18 43
18 44
18 45
18 47
18 52
18 54
18 57
18 58
19 22
19 23
19 26
19 27
19 30
19 39
19 41
19 43
19 47
19 53
19 54
19 56
19 59
20 21
20 22
20 25
20 27
20 29
20 30
20 32
20 33
20 39
20 40
20 43
20 44
20 46
20 47
20 49
20 52
20 54
20 59
21 23
21 25
21 28
21 30
21 32
21 34
21 36
21 37
21 38
21 39
21 42
21 43
21 45
21 47
21 49
21 50
21 51
21 53
21 54
21 55
21 56
21 57
21 58
22 23
22 24
22 27
22 28
22 29
22 30
22 31
22 32
22 33
22 34
22 36
22 38
22 39
22 40
22 42
22 46
22 49
22 51
22 52
22 54
22 55
22 58
22 59
23 25
23 26
23 28
23 31
23 32
23 34
23 35
23 40
23 43
23 46
23 48
23 49
23 51
23 57
23 58
24 25
24 28
24 31
24 33
24 34
24 37
24 40
24 41
24 43
24 44
24 46
24 47
24 49
24 52
24 53
24 56
24 58
25 28
25 30
25 33
25 34
25 35
25 39
25 41
25 43
25 48
25 49
25 51
25 53
25 54
25 56
25 57
25 58
26 27
26 29
26 31
26 35
26 36
26 38
26 39
26 43
26 45
26 47
26 49
26 53
26 55
26 56
26 59
27 29
27 32
27 34
27 40
27 41
27 43
27 45
27 46
27 47
27 48
27 52
27 54
27 56
27 58
27 59
28 29
28 34
28 35
28 37
28 43
28 45
28 47
28 48
28 49
28 52
28 53
28 55
28 56
28 57
28 59
29 31
29 33
29 36
29 37
29 41
29 43
29 49
29 50
29 51
29 56
29 57
29 59
30 31
30 32
30 33
30 35
30 38
30 40
30 41
30 42
30 43
30 45
30 47
30 51
30 52
30 53
30 55
30 56
30 57
31 34
31 38
31 40
31 45
31 46
31 47
31 48
31 49
31 50
31 52
31 53
31 54
31 56
31 59
32 33
32 34
32 37
32 41
32 42
32 43
32 45
32 46
32 48
32 50
32 51
32 57
32 58
32 59
33 34
33 35
33 37
33 39
33 40
33 42
33 43
33 46
33 48
33 50
33 51
33 52
33 54
33 56
33 57
33 58
33 59
34 35
34 36
34 41
34 42
34 44
34 45
34 46
34 47
34 49
34 51
35 36
35 38
35 39
35 45
35 50
35 51
35 52
35 54
35 55
35 56
36 39
36 42
36 43
36 44
36 45
36 50
36 54
36 55
36 57
36 58
36 59
37 40
37 41
37 44
37 45
37 46
37 47
37 53
37 55
37 56
37 59
38 40
38 41
38 42
38 43
38 45
38 46
38 48
38 52
38 53
38 54
38 58
39 42
39 44
39 46
39 47
39 48
39 49
39 50
39 52
39 54
40 41
40 42
40 44
40 45
40 46
40 48
40 52
40 53
40 55
40 56
40 58
41 42
41 44
41 45
41 55
41 56
42 43
42 45
42 46
42 52
42 53
42 55
42 56
42 58
42 59
43 45
43 46
43 47
43 48
43 50
43 51
43 52
43 55
43 59
44 45
44 46
44 50
44 53
44 55
44 58
45 49
45 50
45 51
45 53
45 54
45 55
46 48
46 49
46 52
46 53
46 55
46 57
47 49
47 51
47 53
47 56
47 58
47 59
48 50
48 52
48 54
48 55
49 50
49 51
49 56
49 57
49 59
50 52
50 58
50 59
51 52
51 53
51 54
51 55
51 56
51 57
51 59
52 53
52 57
53 54
53 55
54 55
54 57
54 58
54 59
55 57
55 59
56 57
56 59
57 59
58 59
31 56
19 50
37 47
26 46
20 43
2 16
25 36
35 51
5 38
42 44
4 13
14 22
6 54
52 58
3 11
40 59
27 48
9 17
0 41
28 39
21 49
15 55
10 23
1 24
29 53
33 34
32 45
12 30
7 18
8 57
